\ This file has been generated by DOcplex
\ ENCODING=ISO-8859-1
\Problem name: masterprob

Minimize
 obj: x_4_0 + x_4_1 + x_4_2 + x_4_3 + x_5_0 + x_5_1 + x_5_2 + x_5_3 + x_6_0
      + x_6_1 + x_6_2 + x_6_3 + x_16_0 + x_16_1 + x_16_2 + x_16_3 + x_19_0
      + x_19_1 + x_19_2 + x_19_3 + 500 y
Subject To
 c1: x_4_0 + x_4_1 + x_6_1 + x_16_1 + x_16_3 + y = 1
 c2: x_5_0 + y = 1
 c3: x_4_1 + x_6_0 + x_6_1 + x_16_3 + y = 1
 c4: x_16_2 + y = 1
 c5: x_16_0 + x_16_1 + x_16_2 + x_16_3 + y = 1
 c6: x_4_0 + x_4_1 <= 1
 c7: x_5_0 <= 1
 c8: x_6_0 + x_6_1 <= 1
 c9: x_16_0 + x_16_1 + x_16_2 + x_16_3 <= 1
 c10: <= 1

Bounds
 0 <= x_4_0 <= 1
 0 <= x_4_1 <= 1
 0 <= x_4_2 <= 1
 0 <= x_4_3 <= 1
 0 <= x_5_0 <= 1
 0 <= x_5_1 <= 1
 0 <= x_5_2 <= 1
 0 <= x_5_3 <= 1
 0 <= x_6_0 <= 1
 0 <= x_6_1 <= 1
 0 <= x_6_2 <= 1
 0 <= x_6_3 <= 1
 0 <= x_16_0 <= 1
 0 <= x_16_1 <= 1
 0 <= x_16_2 <= 1
 0 <= x_16_3 <= 1
 0 <= x_19_0 <= 1
 0 <= x_19_1 <= 1
 0 <= x_19_2 <= 1
 0 <= x_19_3 <= 1
 0 <= y <= 1

Binaries
 x_4_0 x_4_1 x_4_2 x_4_3 x_5_0 x_5_1 x_5_2 x_5_3 x_6_0 x_6_1 x_6_2 x_6_3 x_16_0
 x_16_1 x_16_2 x_16_3 x_19_0 x_19_1 x_19_2 x_19_3 y
End
